(set-logic QF_NRA)
(set-info :source |Benchmarks generated from hycomp (https://es-static.fbk.eu/tools/hycomp/). BMC instances of non-linear hybrid automata taken from: Alessandro Cimatti, Sergio Mover, Stefano Tonetta, A quantifier-free SMT encoding of non-linear hybrid automata, FMCAD 2012 and Alessandro Cimatti, Sergio Mover, Stefano Tonetta, Quantier-free encoding of invariants for Hybrid Systems, Formal Methods in System Design. This instance solves a BMC problem of depth 1 and uses the quantifier free encoding with equivalences and lemmas encoding. Contacts: Sergio Mover (mover@fbk.eu), Stefano Tonetta (tonettas@fbk.eu), Alessandro Cimatti (cimatti@fbk.eu).|)
(set-info :smt-lib-version 2.0)
(set-info :category "industrial")
(set-info :status unsat)
;; MathSAT API call trace
;; generated on Mon Mar 19 10:49:10 2012
(declare-fun b.x__AT0 () Real)
(declare-fun b.speed_y__AT1 () Real)
(declare-fun b.delta__AT1 () Real)
(declare-fun b.bool_atom__AT0 () Bool)
(declare-fun b.y__AT0 () Real)
(declare-fun b.EVENT.1__AT1 () Bool)
(declare-fun b.EVENT.0__AT1 () Bool)
(declare-fun b.counter.0__AT0 () Bool)
(declare-fun b.delta__AT0 () Real)
(declare-fun b.counter.1__AT0 () Bool)
(declare-fun b.y__AT1 () Real)
(declare-fun b.EVENT.0__AT0 () Bool)
(declare-fun b.event_is_timed__AT0 () Bool)
(declare-fun b.speed_y__AT0 () Real)
(declare-fun b.speed_x__AT1 () Real)
(declare-fun b.EVENT.1__AT0 () Bool)
(declare-fun b.counter.3__AT0 () Bool)
(declare-fun b.time__AT1 () Real)
(declare-fun b.x__AT1 () Real)
(declare-fun b.event_is_timed__AT1 () Bool)
(declare-fun b.counter.0__AT1 () Bool)
(declare-fun b.speed_loss__AT0 () Real)
(declare-fun b.counter.1__AT1 () Bool)
(declare-fun b.speed_x__AT0 () Real)
(declare-fun b.counter.2__AT1 () Bool)
(declare-fun b.time__AT0 () Real)
(declare-fun b.counter.2__AT0 () Bool)
(declare-fun b.counter.3__AT1 () Bool)
(declare-fun b.bool_atom__AT1 () Bool)
(assert (let ((.def_583 (* (- 49.0) b.delta__AT1)))
(let ((.def_584 (* 5.0 b.speed_y__AT1)))
(let ((.def_586 (+ .def_584 .def_583)))
(let ((.def_599 (<= 0.0 .def_586)))
(let ((.def_600 (not .def_599)))
(let ((.def_597 (<= 0.0 b.speed_y__AT1)))
(let ((.def_614 (or .def_597 .def_600)))
(let ((.def_589 (<= b.speed_y__AT1 0.0 )))
(let ((.def_590 (not .def_589)))
(let ((.def_587 (<= .def_586 0.0 )))
(let ((.def_613 (or .def_587 .def_590)))
(let ((.def_615 (and .def_613 .def_614)))
(let ((.def_469 (* b.y__AT1 b.speed_y__AT1)))
(let ((.def_510 (* 2.0 .def_469)))
(let ((.def_511 (+ b.speed_x__AT1 .def_510)))
(let ((.def_524 (<= .def_511 0.0 )))
(let ((.def_610 (and .def_524 .def_599)))
(let ((.def_512 (<= 0.0 .def_511)))
(let ((.def_609 (and .def_512 .def_587)))
(let ((.def_611 (or .def_609 .def_610)))
(let ((.def_458 (* (- (/ 49 10)) b.speed_y__AT1)))
(let ((.def_487 (* 3.0 .def_458)))
(let ((.def_543 (* 2.0 .def_487)))
(let ((.def_544 (* b.delta__AT1 .def_543)))
(let ((.def_545 (* (- 50.0) .def_544)))
(let ((.def_453 (* b.delta__AT1 b.delta__AT1)))
(let ((.def_542 (* (- 7203.0) .def_453)))
(let ((.def_546 (+ .def_542 .def_545)))
(let ((.def_337 (* b.speed_y__AT1 b.speed_y__AT1)))
(let ((.def_547 (* (- 50.0) .def_337)))
(let ((.def_551 (+ .def_547 .def_546)))
(let ((.def_549 (* 490.0 b.y__AT1)))
(let ((.def_552 (+ .def_549 .def_551)))
(let ((.def_569 (<= 0.0 .def_552)))
(let ((.def_570 (not .def_569)))
(let ((.def_555 (* (- 5.0) .def_337)))
(let ((.def_556 (* 49.0 b.y__AT1)))
(let ((.def_558 (+ .def_556 .def_555)))
(let ((.def_567 (<= 0.0 .def_558)))
(let ((.def_604 (or .def_567 .def_570)))
(let ((.def_559 (<= .def_558 0.0 )))
(let ((.def_560 (not .def_559)))
(let ((.def_553 (<= .def_552 0.0 )))
(let ((.def_603 (or .def_553 .def_560)))
(let ((.def_605 (and .def_603 .def_604)))
(let ((.def_598 (not .def_597)))
(let ((.def_601 (or .def_598 .def_600)))
(let ((.def_602 (not .def_601)))
(let ((.def_606 (or .def_602 .def_605)))
(let ((.def_554 (not .def_553)))
(let ((.def_594 (or .def_554 .def_559)))
(let ((.def_568 (not .def_567)))
(let ((.def_593 (or .def_568 .def_569)))
(let ((.def_595 (and .def_593 .def_594)))
(let ((.def_588 (not .def_587)))
(let ((.def_591 (or .def_588 .def_590)))
(let ((.def_592 (not .def_591)))
(let ((.def_596 (or .def_592 .def_595)))
(let ((.def_607 (and .def_596 .def_606)))
(let ((.def_580 (and .def_524 .def_569)))
(let ((.def_579 (and .def_512 .def_553)))
(let ((.def_581 (or .def_579 .def_580)))
(let ((.def_465 (* (- (/ 49 10)) b.y__AT1)))
(let ((.def_495 (* 2.0 .def_465)))
(let ((.def_496 (* b.delta__AT1 .def_495)))
(let ((.def_497 (* 50.0 .def_496)))
(let ((.def_491 (* 2.0 .def_337)))
(let ((.def_492 (* b.delta__AT1 .def_491)))
(let ((.def_493 (* 25.0 .def_492)))
(let ((.def_503 (+ .def_493 .def_497)))
(let ((.def_488 (* .def_453 .def_487)))
(let ((.def_489 (* 50.0 .def_488)))
(let ((.def_504 (+ .def_489 .def_503)))
(let ((.def_499 (* 50.0 .def_469)))
(let ((.def_505 (+ .def_499 .def_504)))
(let ((.def_454 (* b.delta__AT1 .def_453)))
(let ((.def_486 (* 2401.0 .def_454)))
(let ((.def_506 (+ .def_486 .def_505)))
(let ((.def_501 (* 25.0 b.speed_x__AT1)))
(let ((.def_507 (+ .def_501 .def_506)))
(let ((.def_526 (<= .def_507 0.0 )))
(let ((.def_527 (not .def_526)))
(let ((.def_574 (or .def_524 .def_527)))
(let ((.def_513 (not .def_512)))
(let ((.def_508 (<= 0.0 .def_507)))
(let ((.def_573 (or .def_508 .def_513)))
(let ((.def_575 (and .def_573 .def_574)))
(let ((.def_571 (or .def_568 .def_570)))
(let ((.def_572 (not .def_571)))
(let ((.def_576 (or .def_572 .def_575)))
(let ((.def_509 (not .def_508)))
(let ((.def_564 (or .def_509 .def_512)))
(let ((.def_525 (not .def_524)))
(let ((.def_563 (or .def_525 .def_526)))
(let ((.def_565 (and .def_563 .def_564)))
(let ((.def_561 (or .def_554 .def_560)))
(let ((.def_562 (not .def_561)))
(let ((.def_566 (or .def_562 .def_565)))
(let ((.def_577 (and .def_566 .def_576)))
(let ((.def_539 (and .def_524 .def_526)))
(let ((.def_538 (and .def_508 .def_512)))
(let ((.def_540 (or .def_538 .def_539)))
(let ((.def_470 (* b.delta__AT1 .def_469)))
(let ((.def_471 (* 200.0 .def_470)))
(let ((.def_466 (* .def_453 .def_465)))
(let ((.def_467 (* 200.0 .def_466)))
(let ((.def_477 (+ .def_467 .def_471)))
(let ((.def_462 (* .def_337 .def_453)))
(let ((.def_463 (* 100.0 .def_462)))
(let ((.def_478 (+ .def_463 .def_477)))
(let ((.def_459 (* .def_454 .def_458)))
(let ((.def_460 (* 200.0 .def_459)))
(let ((.def_479 (+ .def_460 .def_478)))
(let ((.def_455 (* b.delta__AT1 .def_454)))
(let ((.def_456 (* 2401.0 .def_455)))
(let ((.def_480 (+ .def_456 .def_479)))
(let ((.def_451 (* b.speed_x__AT1 b.delta__AT1)))
(let ((.def_452 (* 100.0 .def_451)))
(let ((.def_481 (+ .def_452 .def_480)))
(let ((.def_442 (* b.y__AT1 b.y__AT1)))
(let ((.def_473 (* 100.0 .def_442)))
(let ((.def_482 (+ .def_473 .def_481)))
(let ((.def_475 (* 100.0 b.x__AT1)))
(let ((.def_483 (+ .def_475 .def_482)))
(let ((.def_518 (<= .def_483 0.0 )))
(let ((.def_532 (not .def_518)))
(let ((.def_443 (+ b.x__AT1 .def_442)))
(let ((.def_516 (<= .def_443 0.0 )))
(let ((.def_533 (or .def_516 .def_532)))
(let ((.def_444 (<= 0.0 .def_443)))
(let ((.def_530 (not .def_444)))
(let ((.def_484 (<= 0.0 .def_483)))
(let ((.def_531 (or .def_484 .def_530)))
(let ((.def_534 (and .def_531 .def_533)))
(let ((.def_528 (or .def_525 .def_527)))
(let ((.def_529 (not .def_528)))
(let ((.def_535 (or .def_529 .def_534)))
(let ((.def_520 (not .def_484)))
(let ((.def_521 (or .def_444 .def_520)))
(let ((.def_517 (not .def_516)))
(let ((.def_519 (or .def_517 .def_518)))
(let ((.def_522 (and .def_519 .def_521)))
(let ((.def_514 (or .def_509 .def_513)))
(let ((.def_515 (not .def_514)))
(let ((.def_523 (or .def_515 .def_522)))
(let ((.def_536 (and .def_523 .def_535)))
(let ((.def_485 (and .def_444 .def_484)))
(let ((.def_537 (and .def_485 .def_536)))
(let ((.def_541 (and .def_537 .def_540)))
(let ((.def_578 (and .def_541 .def_577)))
(let ((.def_582 (and .def_578 .def_581)))
(let ((.def_608 (and .def_582 .def_607)))
(let ((.def_612 (and .def_608 .def_611)))
(let ((.def_616 (and .def_612 .def_615)))
(let ((.def_66 (<= b.speed_loss__AT0 (/ 1 2))))
(let ((.def_63 (<= (/ 1 10) b.speed_loss__AT0)))
(let ((.def_67 (and .def_63 .def_66)))
(let ((.def_617 (and .def_67 .def_616)))
(let ((.def_445 (and .def_67 .def_444)))
(let ((.def_439 (not b.EVENT.0__AT1)))
(let ((.def_437 (not b.EVENT.1__AT1)))
(let ((.def_440 (or .def_437 .def_439)))
(let ((.def_6 (not b.counter.0__AT1)))
(let ((.def_4 (not b.counter.1__AT1)))
(let ((.def_430 (or .def_4 .def_6)))
(let ((.def_434 (or b.counter.3__AT1 .def_430)))
(let ((.def_431 (or b.counter.2__AT1 .def_430)))
(let ((.def_9 (not b.counter.2__AT1)))
(let ((.def_429 (or .def_6 .def_9)))
(let ((.def_432 (and .def_429 .def_431)))
(let ((.def_359 (not b.counter.3__AT1)))
(let ((.def_433 (or .def_359 .def_432)))
(let ((.def_435 (and .def_433 .def_434)))
(let ((.def_441 (and .def_435 .def_440)))
(let ((.def_446 (and .def_441 .def_445)))
(let ((.def_424 (<= 0.0 b.delta__AT0)))
(let ((.def_55 (not b.EVENT.0__AT0)))
(let ((.def_53 (not b.EVENT.1__AT0)))
(let ((.def_259 (and .def_53 .def_55)))
(let ((.def_261 (not .def_259)))
(let ((.def_425 (or .def_261 .def_424)))
(let ((.def_426 (or b.EVENT.1__AT0 .def_425)))
(let ((.def_302 (= b.bool_atom__AT0 b.bool_atom__AT1)))
(let ((.def_297 (= b.counter.0__AT1 b.counter.0__AT0)))
(let ((.def_295 (= b.counter.1__AT1 b.counter.1__AT0)))
(let ((.def_293 (= b.counter.2__AT1 b.counter.2__AT0)))
(let ((.def_292 (= b.counter.3__AT0 b.counter.3__AT1)))
(let ((.def_294 (and .def_292 .def_293)))
(let ((.def_296 (and .def_294 .def_295)))
(let ((.def_298 (and .def_296 .def_297)))
(let ((.def_420 (and .def_298 .def_302)))
(let ((.def_421 (or .def_261 .def_420)))
(let ((.def_422 (or b.EVENT.1__AT0 .def_421)))
(let ((.def_402 (* b.speed_y__AT0 b.delta__AT0)))
(let ((.def_403 (* 10.0 .def_402)))
(let ((.def_407 (* (- 10.0) b.y__AT1)))
(let ((.def_411 (+ .def_407 .def_403)))
(let ((.def_76 (* b.delta__AT0 b.delta__AT0)))
(let ((.def_404 (* (- 49.0) .def_76)))
(let ((.def_412 (+ .def_404 .def_411)))
(let ((.def_409 (* 10.0 b.y__AT0)))
(let ((.def_413 (+ .def_409 .def_412)))
(let ((.def_414 (= .def_413 0.0 )))
(let ((.def_397 (* (- 5.0) b.speed_y__AT1)))
(let ((.def_223 (* (- 49.0) b.delta__AT0)))
(let ((.def_398 (+ .def_223 .def_397)))
(let ((.def_224 (* 5.0 b.speed_y__AT0)))
(let ((.def_399 (+ .def_224 .def_398)))
(let ((.def_400 (= .def_399 0.0 )))
(let ((.def_393 (* (- 1.0) b.x__AT1)))
(let ((.def_73 (* b.speed_x__AT0 b.delta__AT0)))
(let ((.def_394 (+ .def_73 .def_393)))
(let ((.def_395 (+ b.x__AT0 .def_394)))
(let ((.def_396 (= .def_395 0.0 )))
(let ((.def_401 (and .def_396 .def_400)))
(let ((.def_415 (and .def_401 .def_414)))
(let ((.def_286 (= b.speed_x__AT0 b.speed_x__AT1)))
(let ((.def_416 (and .def_286 .def_415)))
(let ((.def_417 (or .def_261 .def_416)))
(let ((.def_283 (= b.y__AT0 b.y__AT1)))
(let ((.def_280 (= b.x__AT0 b.x__AT1)))
(let ((.def_387 (and .def_280 .def_283)))
(let ((.def_388 (and .def_286 .def_387)))
(let ((.def_289 (= b.speed_y__AT0 b.speed_y__AT1)))
(let ((.def_389 (and .def_289 .def_388)))
(let ((.def_384 (= b.delta__AT0 0.0 )))
(let ((.def_385 (and .def_259 .def_384)))
(let ((.def_386 (not .def_385)))
(let ((.def_390 (or .def_386 .def_389)))
(let ((.def_391 (or b.EVENT.1__AT0 .def_390)))
(let ((.def_376 (and .def_286 .def_289)))
(let ((.def_377 (and .def_298 .def_376)))
(let ((.def_378 (or b.bool_atom__AT0 .def_377)))
(let ((.def_351 (or .def_6 b.counter.0__AT0)))
(let ((.def_36 (not b.counter.0__AT0)))
(let ((.def_350 (or b.counter.0__AT1 .def_36)))
(let ((.def_352 (and .def_350 .def_351)))
(let ((.def_353 (and .def_4 .def_352)))
(let ((.def_354 (or b.counter.1__AT0 .def_353)))
(let ((.def_34 (not b.counter.1__AT0)))
(let ((.def_349 (or b.counter.1__AT1 .def_34)))
(let ((.def_355 (and .def_349 .def_354)))
(let ((.def_367 (and .def_9 .def_355)))
(let ((.def_368 (or b.counter.2__AT0 .def_367)))
(let ((.def_362 (and .def_4 .def_36)))
(let ((.def_363 (or b.counter.1__AT0 .def_362)))
(let ((.def_364 (and .def_349 .def_363)))
(let ((.def_365 (and b.counter.2__AT1 .def_364)))
(let ((.def_39 (not b.counter.2__AT0)))
(let ((.def_366 (or .def_39 .def_365)))
(let ((.def_369 (and .def_366 .def_368)))
(let ((.def_370 (and b.counter.3__AT1 .def_369)))
(let ((.def_371 (or b.counter.3__AT0 .def_370)))
(let ((.def_356 (and b.counter.2__AT1 .def_355)))
(let ((.def_357 (or b.counter.2__AT0 .def_356)))
(let ((.def_345 (or b.counter.1__AT1 b.counter.1__AT0)))
(let ((.def_343 (and .def_4 b.counter.0__AT1)))
(let ((.def_344 (or .def_34 .def_343)))
(let ((.def_346 (and .def_344 .def_345)))
(let ((.def_347 (and .def_9 .def_346)))
(let ((.def_348 (or .def_39 .def_347)))
(let ((.def_358 (and .def_348 .def_357)))
(let ((.def_360 (and .def_358 .def_359)))
(let ((.def_42 (not b.counter.3__AT0)))
(let ((.def_361 (or .def_42 .def_360)))
(let ((.def_372 (and .def_361 .def_371)))
(let ((.def_332 (* b.speed_x__AT0 b.speed_x__AT0)))
(let ((.def_90 (* b.speed_y__AT0 b.speed_y__AT0)))
(let ((.def_333 (+ .def_90 .def_332)))
(let ((.def_318 (* (- 1.0) b.speed_loss__AT0)))
(let ((.def_319 (+ 1.0 .def_318)))
(let ((.def_331 (* .def_319 .def_319)))
(let ((.def_334 (* .def_331 .def_333)))
(let ((.def_335 (* (- 1.0) .def_334)))
(let ((.def_339 (+ .def_335 .def_337)))
(let ((.def_330 (* b.speed_x__AT1 b.speed_x__AT1)))
(let ((.def_340 (+ .def_330 .def_339)))
(let ((.def_341 (= .def_340 0.0 )))
(let ((.def_308 (* 2.0 b.y__AT0)))
(let ((.def_322 (* .def_308 .def_319)))
(let ((.def_323 (* b.speed_y__AT0 .def_322)))
(let ((.def_320 (* b.speed_x__AT0 .def_319)))
(let ((.def_326 (+ .def_320 .def_323)))
(let ((.def_316 (* 2.0 b.y__AT1)))
(let ((.def_317 (* b.speed_y__AT1 .def_316)))
(let ((.def_327 (+ .def_317 .def_326)))
(let ((.def_328 (+ b.speed_x__AT1 .def_327)))
(let ((.def_329 (= .def_328 0.0 )))
(let ((.def_342 (and .def_329 .def_341)))
(let ((.def_373 (and .def_342 .def_372)))
(let ((.def_315 (not b.bool_atom__AT0)))
(let ((.def_374 (or .def_315 .def_373)))
(let ((.def_309 (* b.speed_y__AT0 .def_308)))
(let ((.def_310 (+ b.speed_x__AT0 .def_309)))
(let ((.def_311 (<= 0.0 .def_310)))
(let ((.def_312 (not .def_311)))
(let ((.def_58 (* b.y__AT0 b.y__AT0)))
(let ((.def_59 (+ b.x__AT0 .def_58)))
(let ((.def_307 (= .def_59 0.0 )))
(let ((.def_313 (and .def_307 .def_312)))
(let ((.def_314 (= b.bool_atom__AT0 .def_313)))
(let ((.def_375 (and .def_314 .def_374)))
(let ((.def_379 (and .def_375 .def_378)))
(let ((.def_380 (and .def_280 .def_379)))
(let ((.def_381 (and .def_283 .def_380)))
(let ((.def_382 (or .def_259 .def_381)))
(let ((.def_383 (or b.EVENT.1__AT0 .def_382)))
(let ((.def_392 (and .def_383 .def_391)))
(let ((.def_418 (and .def_392 .def_417)))
(let ((.def_266 (= b.time__AT0 b.time__AT1)))
(let ((.def_281 (and .def_266 .def_280)))
(let ((.def_284 (and .def_281 .def_283)))
(let ((.def_287 (and .def_284 .def_286)))
(let ((.def_290 (and .def_287 .def_289)))
(let ((.def_299 (and .def_290 .def_298)))
(let ((.def_303 (and .def_299 .def_302)))
(let ((.def_304 (or .def_53 .def_303)))
(let ((.def_270 (* (- 1.0) b.time__AT1)))
(let ((.def_273 (+ b.delta__AT0 .def_270)))
(let ((.def_274 (+ b.time__AT0 .def_273)))
(let ((.def_275 (= .def_274 0.0 )))
(let ((.def_276 (or .def_261 .def_275)))
(let ((.def_277 (or b.EVENT.1__AT0 .def_276)))
(let ((.def_267 (or .def_259 .def_266)))
(let ((.def_268 (or b.EVENT.1__AT0 .def_267)))
(let ((.def_278 (and .def_268 .def_277)))
(let ((.def_305 (and .def_278 .def_304)))
(let ((.def_263 (= .def_261 b.event_is_timed__AT1)))
(let ((.def_260 (= b.event_is_timed__AT0 .def_259)))
(let ((.def_264 (and .def_260 .def_263)))
(let ((.def_306 (and .def_264 .def_305)))
(let ((.def_419 (and .def_306 .def_418)))
(let ((.def_423 (and .def_419 .def_422)))
(let ((.def_427 (and .def_423 .def_426)))
(let ((.def_428 (and .def_53 .def_427)))
(let ((.def_447 (and .def_428 .def_446)))
(let ((.def_37 (and .def_34 .def_36)))
(let ((.def_40 (and .def_37 .def_39)))
(let ((.def_448 (and .def_40 .def_447)))
(let ((.def_226 (+ .def_224 .def_223)))
(let ((.def_239 (<= 0.0 .def_226)))
(let ((.def_240 (not .def_239)))
(let ((.def_237 (<= 0.0 b.speed_y__AT0)))
(let ((.def_254 (or .def_237 .def_240)))
(let ((.def_229 (<= b.speed_y__AT0 0.0 )))
(let ((.def_230 (not .def_229)))
(let ((.def_227 (<= .def_226 0.0 )))
(let ((.def_253 (or .def_227 .def_230)))
(let ((.def_255 (and .def_253 .def_254)))
(let ((.def_98 (* b.y__AT0 b.speed_y__AT0)))
(let ((.def_142 (* 2.0 .def_98)))
(let ((.def_143 (+ b.speed_x__AT0 .def_142)))
(let ((.def_156 (<= .def_143 0.0 )))
(let ((.def_250 (and .def_156 .def_239)))
(let ((.def_144 (<= 0.0 .def_143)))
(let ((.def_249 (and .def_144 .def_227)))
(let ((.def_251 (or .def_249 .def_250)))
(let ((.def_85 (* (- (/ 49 10)) b.speed_y__AT0)))
(let ((.def_117 (* 3.0 .def_85)))
(let ((.def_177 (* 2.0 .def_117)))
(let ((.def_178 (* b.delta__AT0 .def_177)))
(let ((.def_180 (* (- 50.0) .def_178)))
(let ((.def_182 (* (- 50.0) .def_90)))
(let ((.def_187 (+ .def_182 .def_180)))
(let ((.def_176 (* (- 7203.0) .def_76)))
(let ((.def_188 (+ .def_176 .def_187)))
(let ((.def_185 (* 490.0 b.y__AT0)))
(let ((.def_189 (+ .def_185 .def_188)))
(let ((.def_208 (<= 0.0 .def_189)))
(let ((.def_209 (not .def_208)))
(let ((.def_194 (* (- 5.0) .def_90)))
(let ((.def_195 (* 49.0 b.y__AT0)))
(let ((.def_197 (+ .def_195 .def_194)))
(let ((.def_206 (<= 0.0 .def_197)))
(let ((.def_244 (or .def_206 .def_209)))
(let ((.def_198 (<= .def_197 0.0 )))
(let ((.def_199 (not .def_198)))
(let ((.def_190 (<= .def_189 0.0 )))
(let ((.def_243 (or .def_190 .def_199)))
(let ((.def_245 (and .def_243 .def_244)))
(let ((.def_238 (not .def_237)))
(let ((.def_241 (or .def_238 .def_240)))
(let ((.def_242 (not .def_241)))
(let ((.def_246 (or .def_242 .def_245)))
(let ((.def_191 (not .def_190)))
(let ((.def_234 (or .def_191 .def_198)))
(let ((.def_207 (not .def_206)))
(let ((.def_233 (or .def_207 .def_208)))
(let ((.def_235 (and .def_233 .def_234)))
(let ((.def_228 (not .def_227)))
(let ((.def_231 (or .def_228 .def_230)))
(let ((.def_232 (not .def_231)))
(let ((.def_236 (or .def_232 .def_235)))
(let ((.def_247 (and .def_236 .def_246)))
(let ((.def_219 (and .def_156 .def_208)))
(let ((.def_218 (and .def_144 .def_190)))
(let ((.def_220 (or .def_218 .def_219)))
(let ((.def_94 (* (- (/ 49 10)) b.y__AT0)))
(let ((.def_127 (* 2.0 .def_94)))
(let ((.def_128 (* b.delta__AT0 .def_127)))
(let ((.def_129 (* 50.0 .def_128)))
(let ((.def_122 (* 2.0 .def_90)))
(let ((.def_123 (* b.delta__AT0 .def_122)))
(let ((.def_125 (* 25.0 .def_123)))
(let ((.def_135 (+ .def_125 .def_129)))
(let ((.def_118 (* .def_76 .def_117)))
(let ((.def_120 (* 50.0 .def_118)))
(let ((.def_136 (+ .def_120 .def_135)))
(let ((.def_131 (* 50.0 .def_98)))
(let ((.def_137 (+ .def_131 .def_136)))
(let ((.def_77 (* b.delta__AT0 .def_76)))
(let ((.def_115 (* 2401.0 .def_77)))
(let ((.def_138 (+ .def_115 .def_137)))
(let ((.def_133 (* 25.0 b.speed_x__AT0)))
(let ((.def_139 (+ .def_133 .def_138)))
(let ((.def_158 (<= .def_139 0.0 )))
(let ((.def_159 (not .def_158)))
(let ((.def_213 (or .def_156 .def_159)))
(let ((.def_145 (not .def_144)))
(let ((.def_140 (<= 0.0 .def_139)))
(let ((.def_212 (or .def_140 .def_145)))
(let ((.def_214 (and .def_212 .def_213)))
(let ((.def_210 (or .def_207 .def_209)))
(let ((.def_211 (not .def_210)))
(let ((.def_215 (or .def_211 .def_214)))
(let ((.def_141 (not .def_140)))
(let ((.def_203 (or .def_141 .def_144)))
(let ((.def_157 (not .def_156)))
(let ((.def_202 (or .def_157 .def_158)))
(let ((.def_204 (and .def_202 .def_203)))
(let ((.def_200 (or .def_191 .def_199)))
(let ((.def_201 (not .def_200)))
(let ((.def_205 (or .def_201 .def_204)))
(let ((.def_216 (and .def_205 .def_215)))
(let ((.def_171 (and .def_156 .def_158)))
(let ((.def_170 (and .def_140 .def_144)))
(let ((.def_172 (or .def_170 .def_171)))
(let ((.def_99 (* b.delta__AT0 .def_98)))
(let ((.def_100 (* 200.0 .def_99)))
(let ((.def_95 (* .def_76 .def_94)))
(let ((.def_96 (* 200.0 .def_95)))
(let ((.def_106 (+ .def_96 .def_100)))
(let ((.def_91 (* .def_76 .def_90)))
(let ((.def_92 (* 100.0 .def_91)))
(let ((.def_107 (+ .def_92 .def_106)))
(let ((.def_86 (* .def_77 .def_85)))
(let ((.def_88 (* 200.0 .def_86)))
(let ((.def_108 (+ .def_88 .def_107)))
(let ((.def_78 (* b.delta__AT0 .def_77)))
(let ((.def_80 (* 2401.0 .def_78)))
(let ((.def_109 (+ .def_80 .def_108)))
(let ((.def_75 (* 100.0 .def_73)))
(let ((.def_110 (+ .def_75 .def_109)))
(let ((.def_102 (* 100.0 .def_58)))
(let ((.def_111 (+ .def_102 .def_110)))
(let ((.def_104 (* 100.0 b.x__AT0)))
(let ((.def_112 (+ .def_104 .def_111)))
(let ((.def_150 (<= .def_112 0.0 )))
(let ((.def_164 (not .def_150)))
(let ((.def_148 (<= .def_59 0.0 )))
(let ((.def_165 (or .def_148 .def_164)))
(let ((.def_60 (<= 0.0 .def_59)))
(let ((.def_162 (not .def_60)))
(let ((.def_113 (<= 0.0 .def_112)))
(let ((.def_163 (or .def_113 .def_162)))
(let ((.def_166 (and .def_163 .def_165)))
(let ((.def_160 (or .def_157 .def_159)))
(let ((.def_161 (not .def_160)))
(let ((.def_167 (or .def_161 .def_166)))
(let ((.def_152 (not .def_113)))
(let ((.def_153 (or .def_60 .def_152)))
(let ((.def_149 (not .def_148)))
(let ((.def_151 (or .def_149 .def_150)))
(let ((.def_154 (and .def_151 .def_153)))
(let ((.def_146 (or .def_141 .def_145)))
(let ((.def_147 (not .def_146)))
(let ((.def_155 (or .def_147 .def_154)))
(let ((.def_168 (and .def_155 .def_167)))
(let ((.def_114 (and .def_60 .def_113)))
(let ((.def_169 (and .def_114 .def_168)))
(let ((.def_173 (and .def_169 .def_172)))
(let ((.def_217 (and .def_173 .def_216)))
(let ((.def_221 (and .def_217 .def_220)))
(let ((.def_248 (and .def_221 .def_247)))
(let ((.def_252 (and .def_248 .def_251)))
(let ((.def_256 (and .def_252 .def_255)))
(let ((.def_257 (and .def_67 .def_256)))
(let ((.def_68 (and .def_60 .def_67)))
(let ((.def_56 (or .def_53 .def_55)))
(let ((.def_46 (or .def_34 .def_36)))
(let ((.def_50 (or b.counter.3__AT0 .def_46)))
(let ((.def_47 (or b.counter.2__AT0 .def_46)))
(let ((.def_45 (or .def_36 .def_39)))
(let ((.def_48 (and .def_45 .def_47)))
(let ((.def_49 (or .def_42 .def_48)))
(let ((.def_51 (and .def_49 .def_50)))
(let ((.def_57 (and .def_51 .def_56)))
(let ((.def_69 (and .def_57 .def_68)))
(let ((.def_43 (and .def_40 .def_42)))
(let ((.def_31 (= b.speed_y__AT0 1.0 )))
(let ((.def_28 (= b.speed_x__AT0 1.0 )))
(let ((.def_24 (= b.y__AT0 10.0 )))
(let ((.def_20 (= b.x__AT0 (- 9.0) )))
(let ((.def_14 (= b.time__AT0 0.0 )))
(let ((.def_16 (and .def_14 b.event_is_timed__AT0)))
(let ((.def_21 (and .def_16 .def_20)))
(let ((.def_25 (and .def_21 .def_24)))
(let ((.def_29 (and .def_25 .def_28)))
(let ((.def_32 (and .def_29 .def_31)))
(let ((.def_44 (and .def_32 .def_43)))
(let ((.def_70 (and .def_44 .def_69)))
(let ((.def_7 (and .def_4 .def_6)))
(let ((.def_10 (and .def_7 .def_9)))
(let ((.def_11 (not .def_10)))
(let ((.def_71 (and .def_11 .def_70)))
(let ((.def_258 (and .def_71 .def_257)))
(let ((.def_449 (and .def_258 .def_448)))
(let ((.def_618 (and .def_449 .def_617)))
.def_618)))))))))))))))))))))))))))))))))))))))))))))))))))))))))))))))))))))))))))))))))))))))))))))))))))))))))))))))))))))))))))))))))))))))))))))))))))))))))))))))))))))))))))))))))))))))))))))))))))))))))))))))))))))))))))))))))))))))))))))))))))))))))))))))))))))))))))))))))))))))))))))))))))))))))))))))))))))))))))))))))))))))))))))))))))))))))))))))))))))))))))))))))))))))))))))))))))))))))))))))))))))))))))))))))))))))))))))))))))))))))))))))))))))))))))))))))))))))))))))))))))))))))))))))))))))))))))))))))))))))
(check-sat)
(exit)
